WARNING: for repeatability, setting FPU to use double precision
============================[ Problem Statistics ]=============================
|                                                                             |
|  Number of variables:        223336                                         |
|  Number of clauses:          513073                                         |
|  Parse time:                   0.18 s                                       |
|                                                                             |
============================[ Search Statistics ]==============================
| Conflicts |          ORIGINAL         |          LEARNT          | Progress |
|           |    Vars  Clauses Literals |    Limit  Clauses Lit/Cl |          |
===============================================================================
|       100 |  122580   490997  1104174 |   180032      100     13 | 45.114 % |
|       250 |  122580   490997  1104174 |   198035      250     30 | 45.114 % |
|       475 |  122580   490997  1104174 |   217839      475     31 | 45.114 % |
|       812 |  122580   490997  1104174 |   239622      812     38 | 45.114 % |
|      1318 |  122580   490997  1104174 |   263585     1318     75 | 45.114 % |
===============================================================================
restarts              : 9
conflicts             : 1369           (1860 /sec)
decisions             : 19642          (0.00 % random) (26686 /sec)
propagations          : 3142930        (4270018 /sec)
conflict literals     : 100306         (3.78 % deleted)
Memory used           : 57.00 MB
CPU time              : 0.736046 s

SATISFIABLE
